c description: Random 1-CNF over 1 variables and 1 clauses
c generator: CNFgen (0.9.2)
c copyright: (C) 2012-2022 Massimo Lauria <massimo.lauria@uniroma1.it>
c url: https://massimolauria.net/cnfgen
c command line: cnfgen randkcnf 1 1 1
c
p cnf 1 1
1 0
